c File: instances/28_0.65_2.col
c
c Description: Random graph of size 28 vertices and P(0.65) of edges between any two vertices.
p col 28 378
e 1 2
e 1 3
e 1 5
e 1 8
e 1 9
e 1 10
e 1 11
e 1 12
e 1 14
e 1 16
e 1 17
e 1 18
e 1 19
e 1 20
e 1 21
e 1 22
e 1 23
e 1 24
e 1 25
e 1 26
e 1 27
e 1 28
e 2 5
e 2 6
e 2 7
e 2 8
e 2 11
e 2 13
e 2 15
e 2 17
e 2 18
e 2 19
e 2 20
e 2 21
e 2 22
e 2 24
e 3 4
e 3 5
e 3 7
e 3 8
e 3 10
e 3 11
e 3 12
e 3 14
e 3 15
e 3 16
e 3 17
e 3 18
e 3 20
e 3 21
e 3 22
e 3 24
e 3 25
e 3 26
e 3 27
e 3 28
e 4 6
e 4 8
e 4 9
e 4 10
e 4 12
e 4 13
e 4 15
e 4 17
e 4 20
e 4 21
e 4 23
e 4 24
e 4 27
e 4 28
e 5 7
e 5 9
e 5 11
e 5 14
e 5 16
e 5 17
e 5 20
e 5 21
e 5 22
e 5 26
e 6 7
e 6 9
e 6 10
e 6 11
e 6 12
e 6 13
e 6 14
e 6 15
e 6 17
e 6 18
e 6 19
e 6 20
e 6 21
e 6 24
e 6 25
e 6 26
e 6 27
e 7 8
e 7 9
e 7 10
e 7 12
e 7 15
e 7 16
e 7 22
e 7 23
e 7 25
e 7 26
e 7 27
e 8 9
e 8 10
e 8 11
e 8 15
e 8 16
e 8 17
e 8 18
e 8 19
e 8 21
e 8 22
e 8 23
e 8 25
e 9 11
e 9 12
e 9 13
e 9 14
e 9 15
e 9 17
e 9 18
e 9 21
e 9 22
e 9 23
e 9 24
e 9 25
e 9 26
e 9 27
e 10 11
e 10 13
e 10 14
e 10 15
e 10 16
e 10 18
e 10 19
e 10 21
e 10 23
e 10 24
e 10 25
e 10 26
e 10 27
e 11 12
e 11 17
e 11 19
e 11 23
e 11 24
e 11 25
e 11 28
e 12 13
e 12 14
e 12 16
e 12 17
e 12 18
e 12 19
e 12 20
e 12 22
e 12 23
e 12 24
e 12 26
e 12 27
e 13 14
e 13 16
e 13 18
e 13 19
e 13 21
e 13 22
e 13 23
e 13 25
e 13 27
e 14 15
e 14 17
e 14 18
e 14 19
e 14 20
e 14 24
e 14 26
e 14 27
e 15 17
e 15 19
e 15 20
e 15 21
e 15 22
e 15 25
e 15 26
e 15 27
e 15 28
e 16 17
e 16 19
e 16 20
e 16 21
e 16 22
e 16 26
e 16 27
e 16 28
e 17 19
e 17 20
e 17 25
e 17 26
e 17 27
e 17 28
e 18 19
e 18 21
e 18 23
e 18 24
e 18 26
e 18 28
e 19 20
e 19 21
e 19 22
e 19 24
e 19 25
e 19 26
e 19 27
e 19 28
e 20 21
e 20 23
e 20 25
e 20 26
e 20 27
e 20 28
e 21 22
e 21 23
e 21 25
e 21 26
e 21 27
e 22 24
e 22 25
e 22 26
e 22 27
e 22 28
e 23 24
e 23 25
e 23 26
e 23 27
e 23 28
e 24 27
e 24 28
e 26 27
e 27 28